# Solution for model r3_t9_m0_4 Batch Number: 1
# Finished Task: 5 / 9
# Makespan: 500.0, Total Distance: 178.0, Total Time: 0.5511
# R O S F Batch
0 0 3 0.0 0.0 -1
1 1 9 0.0 0.0 -1
2 2 -1 0.0 0.0 -1
3 0 8 310.0 339.0 0
4 -1 -1 -1.0 -1.0 0
5 1 -1 464.0 495.0 0
6 -1 -1 -1.0 -1.0 0
7 0 -1 466.0 500.0 0
8 0 7 384.0 415.0 0
9 1 5 415.0 444.0 0
10 -1 -1 -1.0 -1.0 0
11 -1 -1 -1.0 -1.0 0
